p cnf 28 68
-2 3 10 0
-2 4 5 10 0
2 -10 0
2 -3 -5 0
2 -3 -4 0
3 -18 20 21 0
3 -18 -20 -21 0
-3 18 0
-3 -20 21 0
-3 20 -21 0
4 22 -23 0
-4 -22 0
-4 23 0
5 -6 8 9 0
5 -7 8 9 0
-5 -9 0
-5 -8 0
-5 6 7 0
6 24 -25 0
-6 -24 0
-6 25 0
7 26 -27 0
-7 -26 0
-7 27 0
8 -24 25 0
-8 24 0
-8 -25 0
9 -22 23 0
-9 22 0
-9 -23 0
-10 17 18 0
-10 17 21 0
-10 17 -20 0
10 -17 0
10 -18 20 -21 0
11 -3 4 8 12 0
-11 -12 0
-11 -8 0
-11 3 0
-11 -4 0
-12 26 27 6 9 0
-12 -26 -27 6 9 0
12 -6 0
12 -26 27 0
12 -9 0
12 26 -27 0
-13 3 16 0
-13 9 14 16 0
13 -16 0
13 -3 -14 0
13 -3 -9 0
14 4 6 -15 0
14 4 6 -8 0
-14 -4 0
-14 -6 0
-14 8 15 0
15 -26 27 0
-15 26 0
-15 -27 0
-16 19 -21 0
-16 19 20 0
-16 18 19 0
16 -19 0
16 -18 -20 21 0
-28 0
2 0
11 0
13 0

